NAME : dm
COMMENT : Bonn VLSI data set with 8 points
COMMENT : unicaen
COMMENT : Contributed by guy
TYPE : TSP
DIMENSION : 8
EDGE_WEIGHT_TYPE : EUC_2D
NODE_COORD_SECTION
1 2 5
2 2 3
3 1 2
4 4 5
5 5 4
6 4 3
7 6 3
8 3 1
EOF
